100 10
596 721
558 322
635 550
808 166
369 659
580 462
653 320
514 108
637 716
778 290
735 202
434 280
648 154
883 619
424 743
603 211
810 221
654 511
608 515
881 574
190 203
456 731
508 357
738 482
524 314
929 814
633 590
442 284
249 735
780 333
700 295
461 165
335 583
614 676
525 588
492 625
738 329
392 660
632 748
276 718
404 496
666 196
775 459
165 607
273 598
759 292
105 833
508 652
365 356
734 432
289 431
973 569
663 516
582 548
579 654
660 668
65 806
587 718
296 487
731 161
132 783
381 720
710 485
215 474
342 477
819 649
426 819
818 652
605 486
263 978
397 813
353 282
870 942
425 731
718 555
729 198
102 868
605 676
304 645
592 556
308 867
568 598
582 527
424 900
482 371
378 529
32 588
354 173
278 271
343 513
112 707
879 593
524 825
242 724
679 550
40 817
662 744
585 261
217 161
424 849
